NuevoCasoPequenioRenca.tsp
NAME: NuevoCasoPequenioRenca
TYPE: TSP
COMMENT: 51 city problem
DIMENSION: 51
EDGE_WEIGHT_TYPE: EXPLICIT
EDGE_WEIGHT_FORMAT: LOWER_DIAG_ROW
EDGE_WEIGHT_SECTION
 0 39.91 37.90 37.90 1000 1000 1000 1000 1000 82.85 82.85 1000 1000 1000 1000 1000 1000 1000 1000 1000 1000 111.69 111.69 1000 1000 1000 1000 1000 1000 1000 1000 1000 1000 1000 1000 1000 1000 1000 1000 1000 1000 1000 1000 1000 1000 1000 1000 1000 1000 1000 1000
 39.91 0 37.90 37.90 1000 1000 1000 1000 1000 82.85 82.85 1000 1000 1000 1000 1000 1000 1000 1000 1000 1000 111.69 111.69 1000 1000 1000 1000 1000 1000 1000 1000 1000 1000 1000 1000 1000 1000 1000 1000 1000 1000 1000 1000 1000 1000 1000 1000 1000 1000 1000 1000
 39.91 39.91 0 37.90 38.21 38.21 1000 1000 1000 82.85 82.85 1000 1000 1000 1000 1000 1000 1000 1000 1000 1000 1000 1000 1000 1000 1000 110.52 110.52 1000 1000 1000 1000 1000 1000 1000 1000 1000 1000 1000 1000 1000 1000 1000 1000 1000 1000 1000 1000 1000 1000 1000
 39.91 39.91 37.90 0 38.21 38.21 1000 1000 1000 82.85 82.85 1000 1000 1000 1000 1000 1000 1000 1000 1000 1000 1000 1000 1000 1000 1000 110.52 110.52 1000 1000 1000 1000 1000 1000 1000 1000 1000 1000 1000 1000 1000 1000 1000 1000 1000 1000 1000 1000 1000 1000 1000
 1000 1000 37.90 37.90 0 38.21 59.97 59.97 1000 1000 1000 1000 1000 1000 1000 83.02 83.02 1000 1000 1000 1000 1000 1000 1000 1000 1000 110.52 110.52 1000 1000 1000 1000 1000 1000 1000 1000 1000 1000 1000 1000 1000 1000 1000 1000 1000 1000 1000 1000 1000 1000 1000
 1000 1000 37.90 37.90 38.21 0 59.97 59.97 1000 1000 1000 1000 1000 1000 1000 83.02 83.02 1000 1000 1000 1000 1000 1000 1000 1000 1000 110.52 110.52 1000 1000 1000 1000 1000 1000 1000 1000 1000 1000 1000 1000 1000 1000 1000 1000 1000 1000 1000 1000 1000 1000 1000
 1000 1000 1000 1000 38.21 38.21 0 59.97 49.62 1000 1000 1000 1000 1000 1000 83.02 83.02 1000 1000 1000 1000 1000 1000 1000 1000 1000 1000 1000 1000 1000 1000 1000 112.94 1000 1000 1000 1000 1000 1000 1000 1000 1000 1000 1000 1000 1000 1000 1000 1000 1000 1000
 1000 1000 1000 1000 38.21 38.21 59.97 0 49.62 1000 1000 1000 1000 1000 1000 83.02 83.02 1000 1000 1000 1000 1000 1000 1000 1000 1000 1000 1000 1000 1000 1000 1000 112.94 1000 1000 1000 1000 1000 1000 1000 1000 1000 1000 1000 1000 1000 1000 1000 1000 1000 1000
 1000 1000 1000 1000 1000 1000 59.97 59.97 0 1000 1000 1000 1000 1000 1000 1000 1000 1000 1000 1000 1000 1000 1000 43.81 1000 1000 1000 1000 1000 1000 1000 1000 112.94 1000 1000 1000 1000 1000 1000 1000 1000 1000 1000 1000 1000 1000 1000 1000 1000 1000 1000
 39.91 39.91 37.90 37.90 1000 1000 1000 1000 1000 0 82.85 14.72 14.72 14.04 14.04 1000 1000 1000 1000 1000 1000 1000 1000 1000 1000 1000 1000 1000 1000 1000 1000 1000 1000 1000 1000 1000 1000 1000 1000 1000 1000 1000 1000 1000 1000 1000 1000 1000 1000 1000 1000
 39.91 39.91 37.90 37.90 1000 1000 1000 1000 1000 82.85 0 14.72 14.72 14.04 14.04 1000 1000 1000 1000 1000 1000 1000 1000 1000 1000 1000 1000 1000 1000 1000 1000 1000 1000 1000 1000 1000 1000 1000 1000 1000 1000 1000 1000 1000 1000 1000 1000 1000 1000 1000 1000
 1000 1000 1000 1000 1000 1000 1000 1000 1000 82.85 82.85 0 14.72 14.04 14.04 1000 1000 1000 1000 1000 1000 1000 1000 1000 1000 1000 1000 1000 1000 1000 1000 1000 1000 1000 1000 1000 1000 1000 1000 1000 1000 1000 1000 1000 1000 1000 1000 1000 1000 1000 1000
 1000 1000 1000 1000 1000 1000 1000 1000 1000 82.85 82.85 14.72 0 14.04 14.04 1000 1000 1000 1000 1000 1000 1000 1000 1000 1000 1000 1000 1000 1000 1000 1000 1000 1000 1000 1000 1000 1000 1000 1000 1000 1000 1000 1000 1000 1000 1000 1000 1000 1000 1000 1000
 1000 1000 1000 1000 1000 1000 1000 1000 1000 82.85 82.85 14.72 14.72 0 14.04 1000 1000 1000 1000 1000 1000 1000 1000 1000 1000 1000 1000 1000 1000 1000 1000 1000 1000 1000 1000 1000 1000 1000 1000 1000 1000 1000 1000 1000 1000 1000 1000 1000 1000 1000 1000
 1000 1000 1000 1000 1000 1000 1000 1000 1000 82.85 82.85 14.72 14.72 14.04 0 1000 1000 1000 1000 1000 1000 1000 1000 1000 1000 1000 1000 1000 1000 1000 1000 1000 1000 1000 1000 1000 1000 1000 1000 1000 1000 1000 1000 1000 1000 1000 1000 1000 1000 1000 1000
 1000 1000 1000 1000 38.21 38.21 59.97 59.97 1000 1000 1000 1000 1000 1000 1000 0 83.02 15.44 15.44 13.63 13.63 1000 1000 1000 1000 1000 1000 1000 1000 1000 1000 1000 1000 1000 1000 1000 1000 1000 1000 1000 1000 1000 1000 1000 1000 1000 1000 1000 1000 1000 1000
 1000 1000 1000 1000 38.21 38.21 59.97 59.97 1000 1000 1000 1000 1000 1000 1000 83.02 0 15.44 15.44 13.63 13.63 1000 1000 1000 1000 1000 1000 1000 1000 1000 1000 1000 1000 1000 1000 1000 1000 1000 1000 1000 1000 1000 1000 1000 1000 1000 1000 1000 1000 1000 1000
 1000 1000 1000 1000 1000 1000 1000 1000 1000 1000 1000 1000 1000 1000 1000 83.02 83.02 0 15.44 13.63 13.63 1000 1000 1000 1000 1000 1000 1000 1000 1000 1000 1000 1000 1000 1000 1000 1000 1000 1000 1000 1000 1000 1000 1000 1000 1000 1000 1000 1000 1000 1000
 1000 1000 1000 1000 1000 1000 1000 1000 1000 1000 1000 1000 1000 1000 1000 83.02 83.02 15.44 0 13.63 13.63 1000 1000 1000 1000 1000 1000 1000 1000 1000 1000 1000 1000 1000 1000 1000 1000 1000 1000 1000 1000 1000 1000 1000 1000 1000 1000 1000 1000 1000 1000
 1000 1000 1000 1000 1000 1000 1000 1000 1000 1000 1000 1000 1000 1000 1000 83.02 83.02 15.44 15.44 0 13.63 1000 1000 1000 1000 1000 1000 1000 1000 1000 1000 1000 1000 1000 1000 1000 1000 1000 1000 1000 1000 1000 1000 1000 1000 1000 1000 1000 1000 1000 1000
 1000 1000 1000 1000 1000 1000 1000 1000 1000 1000 1000 1000 1000 1000 1000 83.02 83.02 15.44 15.44 13.63 0 1000 1000 1000 1000 1000 1000 1000 1000 1000 1000 1000 1000 1000 1000 1000 1000 1000 1000 1000 1000 1000 1000 1000 1000 1000 1000 1000 1000 1000 1000
 39.91 39.91 1000 1000 1000 1000 1000 1000 1000 1000 1000 1000 1000 1000 1000 1000 1000 1000 1000 1000 1000 0 111.69 1000 62.41 62.41 1000 1000 1000 1000 1000 1000 1000 1000 1000 42.20 42.20 1000 1000 1000 1000 1000 1000 1000 1000 1000 1000 1000 1000 1000 1000
 39.91 39.91 1000 1000 1000 1000 1000 1000 1000 1000 1000 1000 1000 1000 1000 1000 1000 1000 1000 1000 1000 111.69 0 1000 62.41 62.41 1000 1000 1000 1000 1000 1000 1000 1000 1000 42.20 42.20 1000 1000 1000 1000 1000 1000 1000 1000 1000 1000 1000 1000 1000 1000
 1000 1000 1000 1000 1000 1000 1000 1000 49.62 1000 1000 1000 1000 1000 1000 1000 1000 1000 1000 1000 1000 1000 1000 0 1000 1000 1000 1000 1000 1000 1000 1000 1000 1000 1000 1000 1000 109.29 1000 1000 1000 1000 1000 1000 1000 1000 1000 1000 1000 1000 1000
 1000 1000 1000 1000 1000 1000 1000 1000 1000 1000 1000 1000 1000 1000 1000 1000 1000 1000 1000 1000 1000 111.69 111.69 1000 0 62.41 1000 1000 15.54 15.54 1000 1000 1000 1000 1000 42.20 42.20 1000 1000 1000 1000 1000 1000 1000 1000 112.13 112.13 1000 1000 1000 1000
 1000 1000 1000 1000 1000 1000 1000 1000 1000 1000 1000 1000 1000 1000 1000 1000 1000 1000 1000 1000 1000 111.69 111.69 1000 62.41 0 1000 1000 15.54 15.54 1000 1000 1000 1000 1000 42.20 42.20 1000 1000 1000 1000 1000 1000 1000 1000 112.13 112.13 1000 1000 1000 1000
 1000 1000 37.90 37.90 38.21 38.21 1000 1000 1000 1000 1000 1000 1000 1000 1000 1000 1000 1000 1000 1000 1000 1000 1000 1000 1000 1000 0 110.52 15.54 15.54 29.36 29.36 1000 1000 1000 1000 1000 1000 1000 1000 1000 1000 1000 1000 1000 1000 1000 1000 1000 1000 1000
 1000 1000 37.90 37.90 38.21 38.21 1000 1000 1000 1000 1000 1000 1000 1000 1000 1000 1000 1000 1000 1000 1000 1000 1000 1000 1000 1000 110.52 0 15.54 15.54 29.36 29.36 1000 1000 1000 1000 1000 1000 1000 1000 1000 1000 1000 1000 1000 1000 1000 1000 1000 1000 1000
 1000 1000 1000 1000 1000 1000 1000 1000 1000 1000 1000 1000 1000 1000 1000 1000 1000 1000 1000 1000 1000 1000 1000 1000 62.41 62.41 110.52 110.52 0 15.54 29.36 29.36 1000 1000 1000 1000 1000 1000 1000 1000 1000 1000 1000 1000 1000 112.13 112.13 1000 1000 1000 1000
 1000 1000 1000 1000 1000 1000 1000 1000 1000 1000 1000 1000 1000 1000 1000 1000 1000 1000 1000 1000 1000 1000 1000 1000 62.41 62.41 110.52 110.52 15.54 0 29.36 29.36 1000 1000 1000 1000 1000 1000 1000 1000 1000 1000 1000 1000 1000 112.13 112.13 1000 1000 1000 1000
 1000 1000 1000 1000 1000 1000 1000 1000 1000 1000 1000 1000 1000 1000 1000 1000 1000 1000 1000 1000 1000 1000 1000 1000 1000 1000 110.52 110.52 15.54 15.54 0 29.36 1000 48.28 48.28 1000 1000 1000 1000 1000 1000 102.52 102.52 1000 1000 1000 1000 1000 1000 1000 1000
 1000 1000 1000 1000 1000 1000 1000 1000 1000 1000 1000 1000 1000 1000 1000 1000 1000 1000 1000 1000 1000 1000 1000 1000 1000 1000 110.52 110.52 15.54 15.54 29.36 0 1000 48.28 48.28 1000 1000 1000 1000 1000 1000 102.52 102.52 1000 1000 1000 1000 1000 1000 1000 1000
 1000 1000 1000 1000 1000 1000 59.97 59.97 49.62 1000 1000 1000 1000 1000 1000 1000 1000 1000 1000 1000 1000 1000 1000 1000 1000 1000 1000 1000 1000 1000 1000 1000 0 48.28 48.28 1000 1000 1000 91.05 1000 1000 1000 1000 1000 1000 1000 1000 1000 1000 1000 1000
 1000 1000 1000 1000 1000 1000 1000 1000 1000 1000 1000 1000 1000 1000 1000 1000 1000 1000 1000 1000 1000 1000 1000 1000 1000 1000 1000 1000 1000 1000 29.36 29.36 112.94 0 48.28 1000 1000 1000 91.05 1000 1000 102.52 102.52 1000 1000 1000 1000 1000 1000 1000 1000
 1000 1000 1000 1000 1000 1000 1000 1000 1000 1000 1000 1000 1000 1000 1000 1000 1000 1000 1000 1000 1000 1000 1000 1000 1000 1000 1000 1000 1000 1000 29.36 29.36 112.94 48.28 0 1000 1000 1000 91.05 1000 1000 102.52 102.52 1000 1000 1000 1000 1000 1000 1000 1000
 1000 1000 1000 1000 1000 1000 1000 1000 1000 1000 1000 1000 1000 1000 1000 1000 1000 1000 1000 1000 1000 111.69 111.69 1000 62.41 62.41 1000 1000 1000 1000 1000 1000 1000 1000 1000 0 42.20 1000 1000 1000 1000 1000 1000 1000 1000 1000 1000 1000 1000 79.56 79.56
 1000 1000 1000 1000 1000 1000 1000 1000 1000 1000 1000 1000 1000 1000 1000 1000 1000 1000 1000 1000 1000 111.69 111.69 1000 62.41 62.41 1000 1000 1000 1000 1000 1000 1000 1000 1000 42.20 0 1000 1000 1000 1000 1000 1000 1000 1000 1000 1000 1000 1000 79.56 79.56
 1000 1000 1000 1000 1000 1000 1000 1000 1000 1000 1000 1000 1000 1000 1000 1000 1000 1000 1000 1000 1000 1000 1000 43.81 1000 1000 1000 1000 1000 1000 1000 1000 1000 1000 1000 1000 1000 0 91.05 55.94 55.94 1000 1000 1000 1000 1000 1000 1000 1000 1000 1000
 1000 1000 1000 1000 1000 1000 1000 1000 1000 1000 1000 1000 1000 1000 1000 1000 1000 1000 1000 1000 1000 1000 1000 1000 1000 1000 1000 1000 1000 1000 1000 1000 112.94 48.28 48.28 1000 1000 109.29 0 55.94 55.94 1000 1000 1000 1000 1000 1000 1000 1000 1000 1000
 1000 1000 1000 1000 1000 1000 1000 1000 1000 1000 1000 1000 1000 1000 1000 1000 1000 1000 1000 1000 1000 1000 1000 1000 1000 1000 1000 1000 1000 1000 1000 1000 1000 1000 1000 1000 1000 109.29 91.05 0 55.94 102.52 102.52 45.74 45.74 1000 1000 1000 1000 1000 1000
 1000 1000 1000 1000 1000 1000 1000 1000 1000 1000 1000 1000 1000 1000 1000 1000 1000 1000 1000 1000 1000 1000 1000 1000 1000 1000 1000 1000 1000 1000 1000 1000 1000 1000 1000 1000 1000 109.29 91.05 55.94 0 102.52 102.52 45.74 45.74 1000 1000 1000 1000 1000 1000
 1000 1000 1000 1000 1000 1000 1000 1000 1000 1000 1000 1000 1000 1000 1000 1000 1000 1000 1000 1000 1000 1000 1000 1000 1000 1000 1000 1000 1000 1000 29.36 29.36 1000 48.28 48.28 1000 1000 1000 1000 55.94 55.94 0 102.52 45.74 45.74 1000 1000 1000 1000 1000 1000
 1000 1000 1000 1000 1000 1000 1000 1000 1000 1000 1000 1000 1000 1000 1000 1000 1000 1000 1000 1000 1000 1000 1000 1000 1000 1000 1000 1000 1000 1000 29.36 29.36 1000 48.28 48.28 1000 1000 1000 1000 55.94 55.94 102.52 0 45.74 45.74 1000 1000 1000 1000 1000 1000
 1000 1000 1000 1000 1000 1000 1000 1000 1000 1000 1000 1000 1000 1000 1000 1000 1000 1000 1000 1000 1000 1000 1000 1000 1000 1000 1000 1000 1000 1000 1000 1000 1000 1000 1000 1000 1000 1000 1000 55.94 55.94 102.52 102.52 0 45.74 112.13 112.13 50.93 50.93 1000 1000
 1000 1000 1000 1000 1000 1000 1000 1000 1000 1000 1000 1000 1000 1000 1000 1000 1000 1000 1000 1000 1000 1000 1000 1000 1000 1000 1000 1000 1000 1000 1000 1000 1000 1000 1000 1000 1000 1000 1000 55.94 55.94 102.52 102.52 45.74 0 112.13 112.13 50.93 50.93 1000 1000
 1000 1000 1000 1000 1000 1000 1000 1000 1000 1000 1000 1000 1000 1000 1000 1000 1000 1000 1000 1000 1000 1000 1000 1000 62.41 62.41 1000 1000 15.54 15.54 1000 1000 1000 1000 1000 1000 1000 1000 1000 1000 1000 1000 1000 45.74 45.74 0 112.13 50.93 50.93 1000 1000
 1000 1000 1000 1000 1000 1000 1000 1000 1000 1000 1000 1000 1000 1000 1000 1000 1000 1000 1000 1000 1000 1000 1000 1000 62.41 62.41 1000 1000 15.54 15.54 1000 1000 1000 1000 1000 1000 1000 1000 1000 1000 1000 1000 1000 45.74 45.74 112.13 0 50.93 50.93 1000 1000
 1000 1000 1000 1000 1000 1000 1000 1000 1000 1000 1000 1000 1000 1000 1000 1000 1000 1000 1000 1000 1000 1000 1000 1000 1000 1000 1000 1000 1000 1000 1000 1000 1000 1000 1000 1000 1000 1000 1000 1000 1000 1000 1000 45.74 45.74 112.13 112.13 0 50.93 79.56 79.56
 1000 1000 1000 1000 1000 1000 1000 1000 1000 1000 1000 1000 1000 1000 1000 1000 1000 1000 1000 1000 1000 1000 1000 1000 1000 1000 1000 1000 1000 1000 1000 1000 1000 1000 1000 1000 1000 1000 1000 1000 1000 1000 1000 45.74 45.74 112.13 112.13 50.93 0 79.56 79.56
 1000 1000 1000 1000 1000 1000 1000 1000 1000 1000 1000 1000 1000 1000 1000 1000 1000 1000 1000 1000 1000 1000 1000 1000 1000 1000 1000 1000 1000 1000 1000 1000 1000 1000 1000 42.20 42.20 1000 1000 1000 1000 1000 1000 1000 1000 1000 1000 50.93 50.93 0 79.56
 1000 1000 1000 1000 1000 1000 1000 1000 1000 1000 1000 1000 1000 1000 1000 1000 1000 1000 1000 1000 1000 1000 1000 1000 1000 1000 1000 1000 1000 1000 1000 1000 1000 1000 1000 42.20 42.20 1000 1000 1000 1000 1000 1000 1000 1000 1000 1000 50.93 50.93 79.56 0
EOF
